1936
1830
1539
179
886
1610
816
1690
69
1131
1481
2005
1373
1849
1918
1078
208
72
1417
1565
1298
186
1401
1258
1660
1349
1467
535
333
956
204
735
1794
1445
394
1729
361
1484
1175
1067
1124
424
947
1927
776
1546
1861
276
816
1791
